c turning on binary mode checking
c parsing input formula with 202048 variables and 780990 clauses
c finished parsing, read 2195833 bytes from proof file
c detected empty clause; start verification via backward checking
c 1858 of 780990 clauses in core                            
c 572 of 92068 lemmas in core using 9600 resolution steps
c 0 RAT lemmas in core; 19 redundant literals in core lemmas
s VERIFIED
c verification time: 0.906 seconds
